 Compiled for linux_x86_64_ifort15 on Tue, 18 Jul 2017 15:38:41 +0100
 from code version
 056e886bd5a1+ Castep172_branch Mon, 15 May 2017 14:45:35 +0100
 Compiler: Intel Fortran 15.0.3.187; Optimisation: fast
 MATHLIBS: Intel MKL(11.2.3) (LAPACK version 3.5.0)
 FFT Lib : default
 Fundamental constants values: CODATA 2010

 Run started: Thu, 19 Apr 2018 14:45:47 +0100
 Info: number of up-spin electrons is not equal to the
       number of down-spins but spin_polarized=false
     - consider setting spin_polarized=true.

 Pseudo atomic calculation performed for Al 3s2 3p1

 Converged in 15 iterations to a total energy of -52.8779 eV

 Calculation parallelised over 16 processes.
 Data is distributed by G-vector(8-way) and k-point(2-way)

 ************************************ Title ************************************

 ***************************** General Parameters ******************************

 output verbosity                               : normal  (1)
 write checkpoint data to                       : Al.check
 type of calculation                            : band structure
 stress calculation                             : off
 density difference calculation                 : off
 electron localisation func (ELF) calculation   : off
 Hirshfeld analysis                             : off
 unlimited duration calculation
 timing information                             : on
 write final potential to formatted file        : off
 write final density to formatted file          : off
 write BibTeX reference list                    : on
 write OTFG pseudopotential files               : on
 write electrostatic potential file             : on
 write bands file                               : on
 checkpoint writing                             : both castep_bin and check files

 output         length unit                     : A
 output           mass unit                     : amu
 output           time unit                     : ps
 output         charge unit                     : e
 output           spin unit                     : hbar/2
 output         energy unit                     : eV
 output          force unit                     : eV/A
 output       velocity unit                     : A/ps
 output       pressure unit                     : GPa
 output     inv_length unit                     : 1/A
 output      frequency unit                     : cm-1
 output force constant unit                     : eV/A**2
 output         volume unit                     : A**3
 output   IR intensity unit                     : (D/A)**2/amu
 output         dipole unit                     : D
 output         efield unit                     : eV/A/e
 output        entropy unit                     : J/mol/K

 wavefunctions paging                           : none
 random number generator seed                   : randomised (144548438)
 data distribution                              : optimal for this architecture
 optimization strategy                          : maximize speed(+++)

 *********************** Exchange-Correlation Parameters ***********************

 using functional                               : Local Density Approximation
 relativistic treatment                         : Koelling-Harmon
 DFT+D: Semi-empirical dispersion correction    : off

 ************************* Pseudopotential Parameters **************************

 pseudopotential representation                 : reciprocal space
 <beta|phi> representation                      : reciprocal space
 spin-orbit coupling                            : off

 **************************** Basis Set Parameters *****************************

 plane wave basis set cut-off                   :   120.0000   eV
 size of standard grid                          :     1.7500
 size of   fine   gmax                          :     9.8213   1/A
 finite basis set correction                    : none

 **************************** Electronic Parameters ****************************

 number of  electrons                           :  3.000
 net charge of system                           :  0.000
 treating system as non-spin-polarized
 number of bands                                :          6

 ********************* Electronic Minimization Parameters **********************

 Method: Treating system as metallic with density mixing treatment of electrons,
         and number of  SD  steps               :          1
         and number of  CG  steps               :          4

 total energy / atom convergence tol.           : 0.1000E-04   eV
 eigen-energy convergence tolerance             : 0.1000E-05   eV
 max force / atom convergence tol.              : ignored
 convergence tolerance window                   :          3   cycles
 max. number of SCF cycles                      :         30
 number of fixed-spin iterations                :         10
 smearing scheme                                : Gaussian
 smearing width                                 : 0.2000       eV
 Fermi energy convergence tolerance             : 0.2721E-13   eV
 periodic dipole correction                     : NONE

 ************************** Density Mixing Parameters **************************

 density-mixing scheme                          : Broyden
 max. length of mixing history                  :         20
 charge density mixing amplitude                : 0.8000
 cut-off energy for mixing                      :  120.0       eV

 *********************** Population Analysis Parameters ************************

 Population analysis with cutoff                :  3.000       A

 ************************** Band Structure Parameters **************************

 max. number of iterations                      :         60
 max. CG steps in BS calc                       :         25
 number of bands / k-point                      :         19
 band convergence tolerance                     : 0.1000E-05   eV
 write orbitals file                            : on

                                      Unit Cell
        Real Lattice(A)                      Reciprocal Lattice(1/A)
   0.0000000   2.0247500   2.0247500       -1.5515953   1.5515953   1.5515953
   2.0247500   0.0000000   2.0247500        1.5515953  -1.5515953   1.5515953
   2.0247500   2.0247500   0.0000000        1.5515953   1.5515953  -1.5515953

                       Lattice parameters(A)       Cell Angles
                    a =    2.863429          alpha =   60.000000
                    b =    2.863429          beta  =   60.000000
                    c =    2.863429          gamma =   60.000000

                       Current cell volume =   16.601381       A**3
                                   density =    1.625259   AMU/A**3
                                           =    2.698805     g/cm^3

                                     Cell Contents
                         Total number of ions in cell =    1
                      Total number of species in cell =    1
                        Max number of any one species =    1

            x  Element    Atom        Fractional coordinates of atoms  x
            x            Number           u          v          w      x
            x  Al           1         0.000000   0.000000   0.000000   x

                         No user defined ionic velocities

                                   Details of Species

                               Mass of species in AMU
                                    Al   26.9815400

                          Electric Quadrupole Moment (Barn)
                                    Al    0.1466000 Isotope 27

                          Files used for pseudopotentials:
                                    Al /apps/castep/pseudopotentials/Al_00.usp

                              k-Points For BZ Sampling
                       MP grid size for SCF calculation is 12 12 12
                            with an offset of   0.000  0.000  0.000
                       Number of kpoints used =           182

                               Symmetry and Constraints

                      Maximum deviation from symmetry =  0.00000         ANG

                      Number of symmetry operations   =          48
                      Number of ionic constraints     =           3
                      Point group of crystal =    32: Oh, m-3m, 4/m -3 2/m
                      Space group of crystal =   225: Fm-3m, -F 4 2 3

             Set iprint > 1 for details on symmetry rotations/translations

                         Centre of mass is constrained
             Set iprint > 1 for details of linear ionic constraints

                         Number of cell constraints= 5
                         Cell constraints are:  1 1 1 0 0 0

                         External pressure/stress (GPa)
                          0.00000   0.00000   0.00000
                                    0.00000   0.00000
                                              0.00000

Final energy, E             =  -57.08296875464     eV
Final free energy (E-TS)    =  -57.09217467843     eV
(energies not corrected for finite basis set)

NB est. 0K energy (E-0.5TS)      =  -57.08757171654     eV

Writing analysis data to Al.castep_bin

Writing model to Al.check

Writing model to Al.orbitals
  + Calculation re-parallelised over 16 processes.                    +
  + Data distributed by G-vector(8-way), k-point(2-way)               +

 ******************* Unconstrained Forces *******************
 *               Cartesian components (eV/A)                *
 *                         x            y            z      *
 * Al              1      0.00000      0.00000      0.00000 *

 ************** Constrained Symmetrised Forces **************
 *               Cartesian components (eV/A)                *
 *                         x            y            z      *
 * Al              1      0.00000      0.00000      0.00000 *

 Pseudo atomic calculation performed for Al 3s2 3p1

 Converged in 15 iterations to a total energy of -52.8779 eV

Charge spilling parameter for spin component 1 = 1.42%

     Atomic Populations (Mulliken)
Species          Ion     s      p      d      f     Total  Charge (e)
  Al              1     1.13   1.87   0.00   0.00   3.00     0.00

                 Bond                   Population      Length (A)

Writing analysis data to Al.castep_bin

Writing model to Al.check

 A BibTeX formatted list of references used in this run has been written to
 Al.bib

Initialisation time =      1.30 s
Calculation time    =     56.00 s
Finalisation time   =      0.48 s
Total time          =     57.77 s

Overall parallel efficiency rating: Poor (39%)

Data was distributed by:-
G-vector (8-way); efficiency rating: Poor (40%)
k-point (2-way); efficiency rating: Excellent (94%)

Parallel notes:
1) Calculation only took 57.3 s, so efficiency estimates may be inaccurate.