 Compiled for linux_x86_64_ifort15 on Tue, 18 Jul 2017 15:38:41 +0100
 from code version
 056e886bd5a1+ Castep172_branch Mon, 15 May 2017 14:45:35 +0100
 Compiler: Intel Fortran 15.0.3.187; Optimisation: fast
 MATHLIBS: Intel MKL(11.2.3) (LAPACK version 3.5.0)
 FFT Lib : default
 Fundamental constants values: CODATA 2010

 Run started: Thu, 19 Apr 2018 14:30:02 +0100

 Atomic calculation performed for C: 1s2 2s2 2p2

 Converged in 56 iterations to an ae energy of -1018.807 eV

   | Pseudopotential Report - Date of generation 19-04-2018   |
   | Element: C Ionic charge:  4.00 Level of theory: LDA      |
   | Atomic Solver: Koelling-Harmon                           |
   |               Reference Electronic Structure             |
   |         Orbital         Occupation         Energy        |
   |            2s              2.000           -0.501        |
   |            2p              2.000           -0.199        |
   |                 Pseudopotential Definition               |
   |        Beta     l      e      Rc     scheme   norm       |
   |          1      0   -0.501   1.395     qc      0         |
   |          2      0    0.250   1.395     qc      0         |
   |          3      1   -0.199   1.395     qc      0         |
   |          4      1    0.250   1.395     qc      0         |
   |         loc     2    0.000   1.395     pn      0         |
   | Augmentation charge Rinner = 0.983                       |
   | Partial core correction Rc = 0.983                       |
   | "2|1.4|10|12|13|20:21(qc=7)"                             |
   |      Author: Chris J. Pickard, Cambridge University      |

 Pseudo atomic calculation performed for C 2s2 2p2

 Converged in 16 iterations to a total energy of -147.8820 eV

 Calculation parallelised over 16 processes.
 Data is distributed by G-vector(4-way) and k-point(4-way)

 ************************************ Title ************************************

 ***************************** General Parameters ******************************

 output verbosity                               : normal  (1)
 write checkpoint data to                       : graphite.check
 type of calculation                            : band structure
 stress calculation                             : off
 density difference calculation                 : off
 electron localisation func (ELF) calculation   : off
 Hirshfeld analysis                             : off
 unlimited duration calculation
 timing information                             : on
 write final potential to formatted file        : off
 write final density to formatted file          : on
 write BibTeX reference list                    : on
 write OTFG pseudopotential files               : on
 write electrostatic potential file             : on
 write bands file                               : on
 checkpoint writing                             : both castep_bin and check files

 output         length unit                     : A
 output           mass unit                     : amu
 output           time unit                     : ps
 output         charge unit                     : e
 output           spin unit                     : hbar/2
 output         energy unit                     : eV
 output          force unit                     : eV/A
 output       velocity unit                     : A/ps
 output       pressure unit                     : GPa
 output     inv_length unit                     : 1/A
 output      frequency unit                     : cm-1
 output force constant unit                     : eV/A**2
 output         volume unit                     : A**3
 output   IR intensity unit                     : (D/A)**2/amu
 output         dipole unit                     : D
 output         efield unit                     : eV/A/e
 output        entropy unit                     : J/mol/K

 wavefunctions paging                           : none
 random number generator seed                   : randomised (143002465)
 data distribution                              : optimal for this architecture
 optimization strategy                          : maximize speed(+++)

 *********************** Exchange-Correlation Parameters ***********************

 using functional                               : Local Density Approximation
 relativistic treatment                         : Koelling-Harmon
 DFT+D: Semi-empirical dispersion correction    : off

 ************************* Pseudopotential Parameters **************************

 pseudopotential representation                 : reciprocal space
 <beta|phi> representation                      : reciprocal space
 spin-orbit coupling                            : off

 **************************** Basis Set Parameters *****************************

 basis set accuracy                             : MEDIUM
 plane wave basis set cut-off                   :   326.5366   eV
 size of standard grid                          :     1.7500
 size of   fine   gmax                          :    16.2010   1/A
 finite basis set correction                    : none

 **************************** Electronic Parameters ****************************

 number of  electrons                           :  16.00
 net charge of system                           :  0.000
 treating system as non-spin-polarized
 number of bands                                :          8

 ********************* Electronic Minimization Parameters **********************

 Method: Treating system as non-metallic,
         and number of  SD  steps               :          1
         and number of  CG  steps               :          4

 total energy / atom convergence tol.           : 0.1000E-04   eV
 max force / atom convergence tol.              : ignored
 convergence tolerance window                   :          3   cycles
 max. number of SCF cycles                      :         30
 periodic dipole correction                     : NONE

 *********************** Population Analysis Parameters ************************

 Population analysis with cutoff                :  3.000       A

 ************************** Band Structure Parameters **************************

 max. number of iterations                      :         60
 max. CG steps in BS calc                       :         25
 number of bands / k-point                      :         23
 band convergence tolerance                     : 0.1000E-05   eV
 write orbitals file                            : on

                                      Unit Cell
        Real Lattice(A)                      Reciprocal Lattice(1/A)
   2.1304225  -1.2300000   0.0000000        2.9492673   0.0000000   0.0000000
  -0.0000000   2.4600000   0.0000000        1.4746336   2.5541404   0.0000000
   0.0000000   0.0000000   6.8000000        0.0000000   0.0000000   0.9239978

                       Lattice parameters(A)       Cell Angles
                    a =    2.460000          alpha =   90.000000
                    b =    2.460000          beta  =   90.000000
                    c =    6.800000          gamma =  120.000000

                       Current cell volume =   35.637707       A**3
                                   density =    1.348089   AMU/A**3
                                           =    2.238554     g/cm^3

                                     Cell Contents
                         Total number of ions in cell =    4
                      Total number of species in cell =    1
                        Max number of any one species =    4

            x  Element    Atom        Fractional coordinates of atoms  x
            x            Number           u          v          w      x
            x  C            1         0.000000   0.000000   0.250000   x
            x  C            2         0.000000   0.000000   0.750000   x
            x  C            3         0.333333   0.666667   0.250000   x
            x  C            4        -0.333333  -0.666667   0.750000   x

                         No user defined ionic velocities

                                   Details of Species

                               Mass of species in AMU
                                    C   12.0107000

                          Electric Quadrupole Moment (Barn)
                                    C    0.0332700 Isotope 11

                          Files used for pseudopotentials:
                                    C 2|1.4|10|12|13|20:21(qc=7)

                              k-Points For BZ Sampling
                       MP grid size for SCF calculation is 10 10  3
                            with an offset of   0.000  0.000  0.000
                       Number of kpoints used =            60

                               Symmetry and Constraints

                      Maximum deviation from symmetry = 0.300426E-14     ANG

                      Number of symmetry operations   =          24
                      Number of ionic constraints     =           3
                      Point group of crystal =    27: D6h, 6/mmm, 6/m 2/m 2/m
                      Space group of crystal =   194: P6_3/mmc, -P 6c 2c

             Set iprint > 1 for details on symmetry rotations/translations

                         Centre of mass is constrained
             Set iprint > 1 for details of linear ionic constraints

                         Number of cell constraints= 4
                         Cell constraints are:  1 1 3 0 0 0

                         External pressure/stress (GPa)
                          0.00000   0.00000   0.00000
                                    0.00000   0.00000
                                              0.00000

Final energy =  -632.0254910795     eV
(energy not corrected for finite basis set)

Writing analysis data to graphite.castep_bin

Writing model to graphite.check

Writing model to graphite.orbitals
  + Calculation re-parallelised over 16 processes.                    +
  + Data distributed by G-vector(4-way), k-point(4-way)               +

 ******************* Unconstrained Forces *******************
 *               Cartesian components (eV/A)                *
 *                         x            y            z      *
 * C               1      0.00000      0.00000      0.00000 *
 * C               2      0.00000     -0.00000     -0.00000 *
 * C               3      0.00000     -0.00000      0.00000 *
 * C               4      0.00000      0.00000      0.00000 *

 ************** Constrained Symmetrised Forces **************
 *               Cartesian components (eV/A)                *
 *                         x            y            z      *
 * C               1      0.00000      0.00000      0.00000 *
 * C               2      0.00000     -0.00000     -0.00000 *
 * C               3      0.00000     -0.00000      0.00000 *
 * C               4      0.00000      0.00000      0.00000 *

 Pseudo atomic calculation performed for C 2s2 2p2

 Converged in 16 iterations to a total energy of -147.8820 eV

Charge spilling parameter for spin component 1 = 0.87%

     Atomic Populations (Mulliken)
Species          Ion     s      p      d      f     Total  Charge (e)
  C               1     1.03   2.97   0.00   0.00   4.00     0.00
  C               2     1.03   2.97   0.00   0.00   4.00     0.00
  C               3     1.03   2.97   0.00   0.00   4.00    -0.00
  C               4     1.03   2.97   0.00   0.00   4.00    -0.00

                 Bond                   Population      Length (A)
               C 2 -- C 4                    3.10        1.42028
               C 1 -- C 3                    3.10        1.42028

Writing analysis data to graphite.castep_bin

Writing model to graphite.check

 A BibTeX formatted list of references used in this run has been written to
 graphite.bib

Initialisation time =      3.23 s
Calculation time    =     60.33 s
Finalisation time   =      0.44 s
Total time          =     64.00 s

Overall parallel efficiency rating: Poor (44%)

Data was distributed by:-
G-vector (4-way); efficiency rating: Poor (46%)
k-point (4-way); efficiency rating: Excellent (90%)

Parallel notes:
1) Calculation only took 63.6 s, so efficiency estimates may be inaccurate.