 Compiled for linux_x86_64_ifort15 on Tue, 18 Jul 2017 15:38:41 +0100
 from code version
 056e886bd5a1+ Castep172_branch Mon, 15 May 2017 14:45:35 +0100
 Compiler: Intel Fortran 15.0.3.187; Optimisation: fast
 MATHLIBS: Intel MKL(11.2.3) (LAPACK version 3.5.0)
 FFT Lib : default
 Fundamental constants values: CODATA 2010

 Run started: Thu, 19 Apr 2018 14:25:45 +0100

 Atomic calculation performed for Fe: 1s2 2s2 2p6 3s2 3p6 3d6 4s2

 Converged in 99 iterations to an ae energy of -34563.483 eV

   | Pseudopotential Report - Date of generation 19-04-2018   |
   | Element: Fe Ionic charge:  8.00 Level of theory: LDA     |
   | Atomic Solver: Koelling-Harmon                           |
   |               Reference Electronic Structure             |
   |         Orbital         Occupation         Energy        |
   |            3d              6.000           -0.285        |
   |            4s              2.000           -0.202        |
   |                 Pseudopotential Definition               |
   |        Beta     l      e      Rc     scheme   norm       |
   |          1      0   -0.202   2.399     qc      0         |
   |          2      0    0.250   2.399     qc      0         |
   |          3      1    0.000   2.399     qc      0         |
   |          4      1    0.250   2.399     qc      0         |
   |          5      2   -0.285   1.997     qc      0         |
   |          6      2    0.250   1.997     qc      0         |
   |         loc     3    0.000   2.399     pn      0         |
   | Augmentation charge Rinner = 1.000                       |
   | Partial core correction Rc = 1.000                       |
   | "3|2.4|2.4|1.0|8|9|10|40:41:32U2U2(qc=5.5)"              |
   |      Author: Chris J. Pickard, Cambridge University      |

 Pseudo atomic calculation performed for Fe 3d6 4s2

 Converged in 29 iterations to a total energy of -847.0421 eV

 Calculation parallelised over 16 processes.
 Data is distributed by G-vector(8-way) and k-point(2-way)

 ************************************ Title ************************************

 ***************************** General Parameters ******************************

 output verbosity                               : normal  (1)
 write checkpoint data to                       : Fe.check
 type of calculation                            : band structure
 stress calculation                             : off
 density difference calculation                 : off
 electron localisation func (ELF) calculation   : off
 Hirshfeld analysis                             : off
 unlimited duration calculation
 timing information                             : on
 write final potential to formatted file        : off
 write final density to formatted file          : off
 write BibTeX reference list                    : on
 write OTFG pseudopotential files               : on
 write electrostatic potential file             : on
 write bands file                               : on
 checkpoint writing                             : both castep_bin and check files

 output         length unit                     : A
 output           mass unit                     : amu
 output           time unit                     : ps
 output         charge unit                     : e
 output           spin unit                     : hbar/2
 output         energy unit                     : eV
 output          force unit                     : eV/A
 output       velocity unit                     : A/ps
 output       pressure unit                     : GPa
 output     inv_length unit                     : 1/A
 output      frequency unit                     : cm-1
 output force constant unit                     : eV/A**2
 output         volume unit                     : A**3
 output   IR intensity unit                     : (D/A)**2/amu
 output         dipole unit                     : D
 output         efield unit                     : eV/A/e
 output        entropy unit                     : J/mol/K

 wavefunctions paging                           : none
 random number generator seed                   : randomised (142545355)
 data distribution                              : optimal for this architecture
 optimization strategy                          : maximize speed(+++)

 *********************** Exchange-Correlation Parameters ***********************

 using functional                               : Local Density Approximation
 relativistic treatment                         : Koelling-Harmon
 DFT+D: Semi-empirical dispersion correction    : off

 ************************* Pseudopotential Parameters **************************

 pseudopotential representation                 : reciprocal space
 <beta|phi> representation                      : reciprocal space
 spin-orbit coupling                            : off

 **************************** Basis Set Parameters *****************************

 basis set accuracy                             : MEDIUM
 plane wave basis set cut-off                   :   244.9025   eV
 size of standard grid                          :     1.7500
 size of   fine   gmax                          :    14.0305   1/A
 finite basis set correction                    : none

 **************************** Electronic Parameters ****************************

 number of  electrons                           :  8.000
 net charge of system                           :  0.000
 net spin   of system                           :  1.000
 number of  up  spins                           :  4.500
 number of down spins                           :  3.500
 treating system as spin-polarized
 number of bands                                :          9

 ********************* Electronic Minimization Parameters **********************

 Method: Treating system as metallic with density mixing treatment of electrons,
         and number of  SD  steps               :          1
         and number of  CG  steps               :          4

 total energy / atom convergence tol.           : 0.1000E-04   eV
 eigen-energy convergence tolerance             : 0.1000E-05   eV
 max force / atom convergence tol.              : ignored
 convergence tolerance window                   :          3   cycles
 max. number of SCF cycles                      :         30
 number of fixed-spin iterations                :         10
 smearing scheme                                : Gaussian
 smearing width                                 : 0.2000       eV
 Fermi energy convergence tolerance             : 0.2721E-13   eV
 periodic dipole correction                     : NONE

 ************************** Density Mixing Parameters **************************

 density-mixing scheme                          : Broyden
 max. length of mixing history                  :         20
 charge density mixing amplitude                : 0.8000
   spin density mixing amplitude                :  2.000

 *********************** Population Analysis Parameters ************************

 Population analysis with cutoff                :  3.000       A

 ************************** Band Structure Parameters **************************

 max. number of iterations                      :         60
 max. CG steps in BS calc                       :         25
 number of bands / k-point                      :          6
 band convergence tolerance                     : 0.1000E-05   eV
 write orbitals file                            : on

                                      Unit Cell
        Real Lattice(A)                      Reciprocal Lattice(1/A)
  -1.4332000   1.4332000   1.4332000        0.0000000   2.1920127   2.1920127
   1.4332000  -1.4332000   1.4332000        2.1920127  -0.0000000   2.1920127
   1.4332000   1.4332000  -1.4332000        2.1920127   2.1920127  -0.0000000

                       Lattice parameters(A)       Cell Angles
                    a =    2.482375          alpha =  109.471221
                    b =    2.482375          beta  =  109.471221
                    c =    2.482375          gamma =  109.471221

                       Current cell volume =   11.775528       A**3
                                   density =    4.742462   AMU/A**3
                                           =    7.875044     g/cm^3

                                     Cell Contents
                         Total number of ions in cell =    1
                      Total number of species in cell =    1
                        Max number of any one species =    1

            x  Element    Atom        Fractional coordinates of atoms  x
            x            Number           u          v          w      x
            x  Fe           1         0.000000   0.000000   0.000000   x

                         No user defined ionic velocities

                                   Details of Species

                               Mass of species in AMU
                                    Fe   55.8450000

                          Electric Quadrupole Moment (Barn)
                                    Fe    0.1600000 Isotope 57

                          Files used for pseudopotentials:
                                    Fe 3|2.4|2.4|1.0|8|9|10|40:41:32U2U2(qc=5.5)

                              k-Points For BZ Sampling
                       MP grid size for SCF calculation is  8  8  8
                            with an offset of   0.000  0.000  0.000
                       Number of kpoints used =            26

                               Symmetry and Constraints

                      Maximum deviation from symmetry = 0.470004E-15     ANG

                      Number of symmetry operations   =          48
                      Number of ionic constraints     =           3
                      Point group of crystal =    32: Oh, m-3m, 4/m -3 2/m
                      Space group of crystal =   229: Im-3m, -I 4 2 3

             Set iprint > 1 for details on symmetry rotations/translations

                         Centre of mass is constrained
             Set iprint > 1 for details of linear ionic constraints

                         Number of cell constraints= 5
                         Cell constraints are:  1 1 1 0 0 0

                         External pressure/stress (GPa)
                          0.00000   0.00000   0.00000
                                    0.00000   0.00000
                                              0.00000

Integrated Spin Density     =     2.22374     hbar/2
Integrated |Spin Density|   =     2.29110     hbar/2

Final energy, E             =  -856.8549706102     eV
Final free energy (E-TS)    =  -856.8733061779     eV
(energies not corrected for finite basis set)

NB est. 0K energy (E-0.5TS)      =  -856.8641383940     eV

Writing analysis data to Fe.castep_bin

Writing model to Fe.check

Writing model to Fe.orbitals
  + Calculation re-parallelised over 16 processes.                    +
  + Data distributed by G-vector(8-way), k-point(2-way)               +

 ******************* Unconstrained Forces *******************
 *               Cartesian components (eV/A)                *
 *                         x            y            z      *
 * Fe              1      0.00000      0.00000      0.00000 *

 ************** Constrained Symmetrised Forces **************
 *               Cartesian components (eV/A)                *
 *                         x            y            z      *
 * Fe              1      0.00000      0.00000      0.00000 *

 Pseudo atomic calculation performed for Fe 3d6 4s2

 Converged in 29 iterations to a total energy of -847.0421 eV

Charge spilling parameter for spin component 1 = 0.11%
Charge spilling parameter for spin component 2 = 0.38%

     Atomic Populations (Mulliken)
Species          Ion     s      p      d      f     Total  Charge (e)  Spin (hbar/2)
  Fe              1     0.67   0.65   6.68   0.00   8.00     0.00        2.22

                 Bond                   Population        Spin       Length (A)

Writing analysis data to Fe.castep_bin

Writing model to Fe.check

 A BibTeX formatted list of references used in this run has been written to
 Fe.bib

Initialisation time =      9.88 s
Calculation time    =     16.10 s
Finalisation time   =      0.45 s
Total time          =     26.42 s

Overall parallel efficiency rating: Terrible (32%)

Data was distributed by:-
G-vector (8-way); efficiency rating: Poor (35%)
k-point (2-way); efficiency rating: Good (72%)

Parallel notes:
1) Calculation only took 26.0 s, so efficiency estimates may be inaccurate.